NAME : rc_206.2.8704875.tour
COMMENT : Length = 8704875
COMMENT : Found by LKH [Keld Helsgaun] Tue Nov  7 19:55:50 2017
TYPE : TOUR
DIMENSION : 37
TOUR_SECTION
1
35
36
21
27
28
20
16
19
23
10
8
5
24
30
29
15
14
6
9
17
7
31
32
2
3
4
37
22
18
25
12
11
13
33
34
26
-1
EOF
